Route #1: 2 53 28 17 36 49 37 50 4
Route #2: 48 22 27 40 5 38 30 43 54
Route #3: 26 25 7 8 46 42
Route #4: 16 20 19 41 52 18 29 9 47 11 44 55
Route #5: 14 33 34 12 56 32 21 35 31 3
Route #6: 15 45 13 10 39 23 51 24
Route #7: 6
cost 887
